projected/problems_b25_r0_d7_m100_s666/_DIMACS/b25_d7_r0_s666_079.cnf
p cnf 307 549 25
c p show 1 2 3 4 5 6 7 8 9 10 11 12 13 14 15 16 17 18 19 20 21 22 23 24 25
-48 -1 10 0
-49 -24 -21 0
-50 49 48 0
-51 17 0
-51 -13 0
-52 2 0
-53 52 51 0
-54 53 0
-54 50 0
-55 -13 13 0
-56 -9 -14 0
-57 56 55 0
-58 15 0
-58 11 0
-59 4 0
-59 -10 0
-60 59 0
-60 58 0
-61 60 57 0
-62 61 0
-62 54 0
-63 19 2 0
-64 -2 -19 0
-65 64 0
-65 63 0
-66 21 -19 0
-67 19 -21 0
-68 67 0
-68 66 0
-69 68 65 0
-70 19 5 0
-71 11 0
-71 2 0
-72 71 70 0
-73 72 0
-73 69 0
-74 19 -7 0
-75 -22 -7 0
-76 75 0
-76 74 0
-77 -8 -9 0
-78 21 -10 0
-79 78 77 0
-80 79 0
-80 76 0
-81 80 0
-81 73 0
-82 81 0
-82 62 0
-83 -19 0
-83 -2 0
-84 2 0
-84 19 0
-85 84 83 0
-86 -21 0
-86 19 0
-87 -19 0
-87 21 0
-88 87 86 0
-89 88 0
-89 85 0
-90 -19 0
-90 -5 0
-91 -11 -2 0
-92 91 0
-92 90 0
-93 92 89 0
-94 -19 0
-94 7 0
-95 22 0
-95 7 0
-96 95 94 0
-97 8 0
-97 9 0
-98 -21 0
-98 10 0
-99 98 0
-99 97 0
-100 99 96 0
-101 100 93 0
-102 1 0
-102 -10 0
-103 24 0
-103 21 0
-104 103 0
-104 102 0
-105 -17 13 0
-106 -2 0
-107 106 0
-107 105 0
-108 107 104 0
-109 13 0
-109 -13 0
-110 9 0
-110 14 0
-111 110 0
-111 109 0
-112 -15 -11 0
-113 -4 10 0
-114 113 112 0
-115 114 0
-115 111 0
-116 115 108 0
-117 116 0
-117 101 0
-118 117 82 0
-119 4 0
-119 7 0
-120 -7 0
-120 -4 0
-121 120 119 0
-122 6 0
-122 -3 0
-123 122 0
-123 121 0
-124 -8 0
-124 6 0
-125 -6 0
-125 8 0
-126 125 124 0
-127 6 22 0
-128 127 126 0
-129 -6 0
-129 -22 0
-130 8 -6 0
-131 6 -8 0
-132 131 0
-132 130 0
-133 132 129 0
-134 133 0
-134 128 0
-135 134 0
-135 123 0
-136 -3 0
-136 -9 0
-137 -2 0
-137 -10 0
-138 137 0
-138 136 0
-139 7 0
-139 -24 0
-140 3 0
-140 5 0
-141 140 139 0
-142 141 138 0
-143 142 135 0
-144 -24 14 0
-145 -7 7 0
-146 145 0
-146 144 0
-147 -9 0
-147 21 0
-148 -21 0
-148 9 0
-149 148 147 0
-150 48 0
-150 149 0
-151 9 -21 0
-152 21 -9 0
-153 152 0
-153 151 0
-154 153 0
-154 102 0
-155 154 150 0
-156 155 0
-156 146 0
-157 102 153 0
-158 149 48 0
-159 158 0
-159 157 0
-160 24 0
-160 -14 0
-161 7 0
-161 -7 0
-162 161 160 0
-163 162 0
-163 159 0
-164 163 156 0
-165 -18 5 0
-166 24 17 0
-167 166 0
-167 165 0
-168 -7 -23 0
-169 23 7 0
-170 169 0
-170 168 0
-171 170 87 0
-172 171 0
-172 167 0
-173 172 0
-173 164 0
-174 173 0
-174 143 0
-175 174 0
-175 118 0
-176 -4 -7 0
-177 7 4 0
-178 177 0
-178 176 0
-179 -6 3 0
-180 179 178 0
-181 129 0
-181 132 0
-182 126 0
-182 127 0
-183 182 181 0
-184 183 180 0
-185 3 9 0
-186 2 10 0
-187 186 185 0
-188 -7 24 0
-189 -3 -5 0
-190 189 0
-190 188 0
-191 190 0
-191 187 0
-192 191 0
-192 184 0
-193 159 162 0
-194 146 155 0
-195 194 0
-195 193 0
-196 18 0
-196 -5 0
-197 -24 0
-197 -17 0
-198 197 196 0
-199 7 0
-199 23 0
-200 -23 0
-200 -7 0
-201 200 199 0
-202 201 0
-202 67 0
-203 202 198 0
-204 203 195 0
-205 204 192 0
-206 101 116 0
-207 62 81 0
-208 207 0
-208 206 0
-209 208 0
-209 205 0
-210 209 175 0
-211 7 -1 0
-213 1 -7 0
-214 213 0
-214 211 0
-215 -24 0
-215 13 0
-216 215 0
-216 214 0
-217 -20 0
-217 3 0
-219 4 -16 0
-220 16 -4 0
-221 220 0
-221 219 0
-222 221 217 0
-223 -4 0
-223 16 0
-225 -16 0
-225 4 0
-226 225 223 0
-227 20 -3 0
-228 227 226 0
-229 228 0
-229 222 0
-231 229 0
-231 216 0
-232 21 -11 0
-233 11 -21 0
-234 233 0
-234 232 0
-235 -21 0
-235 -16 0
-237 235 234 0
-238 24 0
-238 -16 0
-239 22 15 0
-240 239 238 0
-241 240 237 0
-243 241 0
-243 231 0
-244 7 0
-244 -23 0
-245 -3 0
-245 2 0
-246 245 244 0
-247 -25 14 0
-249 16 0
-249 2 0
-250 249 247 0
-251 250 246 0
-252 25 0
-252 -14 0
-253 -16 -2 0
-255 253 0
-255 252 0
-256 -7 23 0
-257 3 -2 0
-258 257 0
-258 256 0
-259 258 255 0
-260 259 0
-260 251 0
-261 -1 -19 0
-262 -3 0
-262 -1 0
-263 262 0
-263 261 0
-264 3 1 0
-265 1 0
-265 19 0
-266 265 0
-266 264 0
-267 266 263 0
-268 18 3 0
-269 3 16 0
-270 269 0
-270 268 0
-271 270 0
-271 267 0
-272 271 260 0
-273 272 0
-273 243 0
-274 -17 0
-274 -16 0
-275 -8 0
-275 25 0
-276 -25 0
-276 8 0
-277 276 275 0
-278 277 274 0
-279 -7 -19 0
-280 21 0
-280 -11 0
-281 11 0
-281 -21 0
-282 281 280 0
-283 282 0
-283 279 0
-284 283 278 0
-285 7 0
-285 -12 0
-286 -7 21 0
-287 286 285 0
-288 7 0
-288 -21 0
-289 -7 12 0
-290 289 288 0
-291 290 0
-291 287 0
-292 -17 -22 0
-293 23 0
-293 -13 0
-294 13 0
-294 -23 0
-295 294 293 0
-296 295 0
-296 292 0
-297 296 291 0
-298 297 0
-298 284 0
-299 288 0
-299 289 0
-300 285 0
-300 286 0
-301 300 299 0
-302 17 0
-302 22 0
-303 -23 13 0
-304 -13 23 0
-305 304 0
-305 303 0
-306 305 302 0
-307 306 0
-307 301 0
-26 17 16 0
-212 8 -25 0
-218 25 -8 0
-224 218 0
-224 212 0
-230 224 0
-230 26 0
-236 7 0
-236 19 0
-242 -21 11 0
-248 -11 21 0
-254 248 0
-254 242 0
-27 254 236 0
-29 27 0
-29 230 0
-31 29 0
-31 307 0
-33 31 298 0
-35 -11 14 0
-28 9 0
-28 -25 0
-30 28 35 0
-32 -21 0
-32 -3 0
-34 -5 0
-34 10 0
-36 34 0
-36 32 0
-37 36 0
-37 30 0
-38 13 0
-38 23 0
-39 7 -18 0
-40 39 38 0
-41 3 -16 0
-42 -13 0
-42 -14 0
-43 42 0
-43 41 0
-44 43 0
-44 40 0
-45 44 0
-45 37 0
-46 45 0
-46 33 0
-47 46 0
-47 273 0
47 0
210 0
-178 -121 0
-179 -122 0
-180 -123 0
-129 -127 0
-132 -126 0
-126 -132 0
-134 -183 0
-183 -134 0
-184 -135 0
-136 -185 0
-137 -186 0
-138 -187 0
-139 -188 0
-189 -140 0
-140 -189 0
-141 -190 0
-142 -191 0
-191 -142 0
-192 -143 0
-143 -192 0
-102 -48 0
-48 -102 0
-153 -149 0
-159 -155 0
-155 -159 0
-160 -144 0
-145 -161 0
-161 -145 0
-162 -146 0
-195 -164 0
-164 -195 0
-196 -165 0
-166 -197 0
-197 -166 0
-198 -167 0
-167 -198 0
-67 -87 0
-87 -67 0
-170 -201 0
-171 -202 0
-172 -203 0
-173 -204 0
-174 -205 0
-65 -85 0
-85 -65 0
-68 -88 0
-88 -68 0
-89 -69 0
-70 -90 0
-91 -71 0
-71 -91 0
-72 -92 0
-92 -72 0
-93 -73 0
-73 -93 0
-94 -74 0
-95 -75 0
-96 -76 0
-76 -96 0
-97 -77 0
-77 -97 0
-98 -78 0
-78 -98 0
-79 -99 0
-80 -100 0
-81 -101 0
-103 -49 0
-104 -50 0
-50 -104 0
-105 -51 0
-52 -106 0
-106 -52 0
-107 -53 0
-53 -107 0
-54 -108 0
-108 -54 0
-109 -55 0
-55 -109 0
-56 -110 0
-57 -111 0
-111 -57 0
-112 -58 0
-59 -113 0
-113 -59 0
-114 -60 0
-115 -61 0
-116 -62 0
-208 -118 0
-221 -226 0
-226 -221 0
-227 -217 0
-217 -227 0
-252 -247 0
-253 -249 0
-255 -250 0
-244 -256 0
-256 -244 0
-245 -257 0
-257 -245 0
-258 -246 0
-246 -258 0
-262 -264 0
-265 -261 0
-288 -286 0
-285 -289 0
-291 -301 0
-302 -292 0
-305 -295 0
-306 -296 0
-296 -306 0
-297 -307 0
-274 -26 0
-224 -277 0
-277 -224 0
-278 -230 0
-236 -279 0
-254 -282 0
-27 -283 0
-283 -27 0
-284 -29 0
-29 -284 0
