projected/problems_b25_r0_d7_m100_s666/b25_d7_r0_s666_079.smt2
(set-logic QF_UF)
(declare-fun A0 () Bool)
(declare-fun A1 () Bool)
(declare-fun A2 () Bool)
(declare-fun A3 () Bool)
(declare-fun A4 () Bool)
(declare-fun A5 () Bool)
(declare-fun A6 () Bool)
(declare-fun A7 () Bool)
(declare-fun A8 () Bool)
(declare-fun A9 () Bool)
(declare-fun A10 () Bool)
(declare-fun A11 () Bool)
(declare-fun A12 () Bool)
(declare-fun A13 () Bool)
(declare-fun A14 () Bool)
(declare-fun A15 () Bool)
(declare-fun A16 () Bool)
(declare-fun A17 () Bool)
(declare-fun A18 () Bool)
(declare-fun A19 () Bool)
(declare-fun A20 () Bool)
(declare-fun A21 () Bool)
(declare-fun A22 () Bool)
(declare-fun A23 () Bool)
(declare-fun A24 () Bool)
(assert (let ((.def_0 (not A6))) (let ((.def_1 (= .def_0 A3))) (let ((.def_2 (not A5))) (let ((.def_3 (or .def_2 A2))) (let ((.def_4 (or .def_3 .def_1))) (let ((.def_5 (not A21))) (let ((.def_6 (and .def_2 .def_5))) (let ((.def_7 (not A7))) (let ((.def_8 (= .def_2 .def_7))) (let ((.def_9 (not .def_8))) (let ((.def_10 (= .def_9 .def_6))) (let ((.def_11 (not .def_10))) (let ((.def_12 (or .def_11 .def_4))) (let ((.def_13 (not A8))) (let ((.def_14 (not A2))) (let ((.def_15 (and .def_14 .def_13))) (let ((.def_16 (not A9))) (let ((.def_17 (not A1))) (let ((.def_18 (and .def_17 .def_16))) (let ((.def_19 (and .def_18 .def_15))) (let ((.def_20 (not A23))) (let ((.def_21 (and A6 .def_20))) (let ((.def_22 (not A4))) (let ((.def_23 (or .def_14 .def_22))) (let ((.def_24 (not .def_23))) (let ((.def_25 (or .def_24 .def_21))) (let ((.def_26 (or .def_25 .def_19))) (let ((.def_27 (not .def_26))) (let ((.def_28 (and .def_27 .def_12))) (let ((.def_29 (not .def_28))) (let ((.def_30 (and A0 .def_16))) (let ((.def_31 (not .def_30))) (let ((.def_32 (not A20))) (let ((.def_33 (= .def_32 .def_13))) (let ((.def_34 (= .def_33 .def_31))) (let ((.def_35 (not .def_34))) (let ((.def_36 (not A13))) (let ((.def_37 (and A23 .def_36))) (let ((.def_38 (or .def_0 A6))) (let ((.def_39 (not .def_38))) (let ((.def_40 (or .def_39 .def_37))) (let ((.def_41 (= .def_40 .def_35))) (let ((.def_42 (not .def_41))) (let ((.def_43 (and A17 .def_22))) (let ((.def_44 (or A23 A16))) (let ((.def_45 (not .def_44))) (let ((.def_46 (or .def_45 .def_43))) (let ((.def_47 (not .def_46))) (let ((.def_48 (or A18 .def_32))) (let ((.def_49 (not .def_48))) (let ((.def_50 (not A22))) (let ((.def_51 (= .def_50 A6))) (let ((.def_52 (or .def_51 .def_49))) (let ((.def_53 (and .def_52 .def_47))) (let ((.def_54 (and .def_53 .def_42))) (let ((.def_55 (and .def_54 .def_29))) (let ((.def_56 (not A18))) (let ((.def_57 (= A1 .def_56))) (let ((.def_58 (not .def_57))) (let ((.def_59 (= .def_56 .def_32))) (let ((.def_60 (not .def_59))) (let ((.def_61 (and .def_60 .def_58))) (let ((.def_62 (or A18 A4))) (let ((.def_63 (not A10))) (let ((.def_64 (or .def_63 .def_17))) (let ((.def_65 (not .def_64))) (let ((.def_66 (or .def_65 .def_62))) (let ((.def_67 (not .def_66))) (let ((.def_68 (or .def_67 .def_61))) (let ((.def_69 (not .def_68))) (let ((.def_70 (and .def_56 A6))) (let ((.def_71 (and A21 A6))) (let ((.def_72 (or .def_71 .def_70))) (let ((.def_73 (not .def_72))) (let ((.def_74 (and A7 A8))) (let ((.def_75 (not .def_74))) (let ((.def_76 (and .def_32 A9))) (let ((.def_77 (not .def_76))) (let ((.def_78 (or .def_77 .def_75))) (let ((.def_79 (and .def_78 .def_73))) (let ((.def_80 (and .def_79 .def_69))) (let ((.def_81 (and A23 A20))) (let ((.def_82 (and .def_81 .def_30))) (let ((.def_83 (not .def_82))) (let ((.def_84 (not A16))) (let ((.def_85 (or .def_84 A12))) (let ((.def_86 (or A1 A1))) (let ((.def_87 (not .def_86))) (let ((.def_88 (and .def_87 .def_85))) (let ((.def_89 (not .def_88))) (let ((.def_90 (and .def_89 .def_83))) (let ((.def_91 (not .def_90))) (let ((.def_92 (not A12))) (let ((.def_93 (and A12 .def_92))) (let ((.def_94 (not .def_93))) (let ((.def_95 (or .def_13 .def_36))) (let ((.def_96 (or .def_95 .def_94))) (let ((.def_97 (not .def_96))) (let ((.def_98 (not A14))) (let ((.def_99 (or .def_98 .def_63))) (let ((.def_100 (and A3 .def_16))) (let ((.def_101 (not .def_100))) (let ((.def_102 (or .def_101 .def_99))) (let ((.def_103 (and .def_102 .def_97))) (let ((.def_104 (or .def_103 .def_91))) (let ((.def_105 (= .def_104 .def_80))) (let ((.def_106 (= .def_105 .def_55))) (let ((.def_107 (not A0))) (let ((.def_108 (= .def_107 .def_0))) (let ((.def_109 (and .def_20 A12))) (let ((.def_110 (and .def_109 .def_108))) (let ((.def_111 (not A3))) (let ((.def_112 (not A15))) (let ((.def_113 (= .def_112 .def_111))) (let ((.def_114 (not .def_113))) (let ((.def_115 (or A19 .def_14))) (let ((.def_116 (not .def_115))) (let ((.def_117 (= .def_116 .def_114))) (let ((.def_118 (and .def_117 .def_110))) (let ((.def_119 (= .def_63 .def_32))) (let ((.def_120 (or A20 A15))) (let ((.def_121 (not .def_120))) (let ((.def_122 (or .def_121 .def_119))) (let ((.def_123 (and A23 .def_112))) (let ((.def_124 (not .def_123))) (let ((.def_125 (and .def_5 .def_98))) (let ((.def_126 (and .def_125 .def_124))) (let ((.def_127 (not .def_126))) (let ((.def_128 (or .def_127 .def_122))) (let ((.def_129 (and .def_128 .def_118))) (let ((.def_130 (and A24 .def_36))) (let ((.def_131 (or .def_112 .def_17))) (let ((.def_132 (and .def_131 .def_130))) (let ((.def_133 (and A6 .def_50))) (let ((.def_134 (not .def_133))) (let ((.def_135 (and .def_14 A1))) (let ((.def_136 (not .def_135))) (let ((.def_137 (and .def_136 .def_134))) (let ((.def_138 (not .def_137))) (let ((.def_139 (= .def_138 .def_132))) (let ((.def_140 (and .def_14 .def_107))) (let ((.def_141 (and A0 A18))) (let ((.def_142 (= .def_141 .def_140))) (let ((.def_143 (not .def_142))) (let ((.def_144 (not A17))) (let ((.def_145 (and .def_144 .def_14))) (let ((.def_146 (not .def_145))) (let ((.def_147 (and .def_14 .def_112))) (let ((.def_148 (not .def_147))) (let ((.def_149 (and .def_148 .def_146))) (let ((.def_150 (and .def_149 .def_143))) (let ((.def_151 (or .def_150 .def_139))) (let ((.def_152 (and .def_151 .def_129))) (let ((.def_153 (and A6 .def_32))) (let ((.def_154 (not A11))) (let ((.def_155 (and A6 .def_154))) (let ((.def_156 (= .def_155 .def_153))) (let ((.def_157 (and A16 A21))) (let ((.def_158 (= A12 A22))) (let ((.def_159 (or .def_158 .def_157))) (let ((.def_160 (not .def_159))) (let ((.def_161 (or .def_160 .def_156))) (let ((.def_162 (and .def_84 .def_112))) (let ((.def_163 (not A24))) (let ((.def_164 (= .def_163 .def_7))) (let ((.def_165 (not .def_164))) (let ((.def_166 (or .def_165 .def_162))) (let ((.def_167 (and A6 A18))) (let ((.def_168 (= A10 A20))) (let ((.def_169 (or .def_168 .def_167))) (let ((.def_170 (not .def_169))) (let ((.def_171 (or .def_170 .def_166))) (let ((.def_172 (not .def_171))) (let ((.def_173 (= .def_172 .def_161))) (let ((.def_174 (or .def_63 A13))) (let ((.def_175 (not .def_174))) (let ((.def_176 (or .def_13 A24))) (let ((.def_177 (and .def_176 .def_175))) (let ((.def_178 (and .def_32 .def_14))) (let ((.def_179 (and .def_22 A9))) (let ((.def_180 (and .def_179 .def_178))) (let ((.def_181 (not .def_180))) (let ((.def_182 (or .def_181 .def_177))) (let ((.def_183 (not .def_182))) (let ((.def_184 (and A12 A22))) (let ((.def_185 (not .def_184))) (let ((.def_186 (and .def_0 A17))) (let ((.def_187 (and .def_186 .def_185))) (let ((.def_188 (and .def_14 A15))) (let ((.def_189 (and .def_92 .def_36))) (let ((.def_190 (not .def_189))) (let ((.def_191 (or .def_190 .def_188))) (let ((.def_192 (or .def_191 .def_187))) (let ((.def_193 (not .def_192))) (let ((.def_194 (and .def_193 .def_183))) (let ((.def_195 (not .def_194))) (let ((.def_196 (or .def_195 .def_173))) (let ((.def_197 (not .def_196))) (let ((.def_198 (and .def_197 .def_152))) (let ((.def_199 (not .def_198))) (let ((.def_200 (or .def_199 .def_106))) (let ((.def_201 (not .def_200))) .def_201)))))))))))))))))))))))))))))))))))))))))))))))))))))))))))))))))))))))))))))))))))))))))))))))))))))))))))))))))))))))))))))))))))))))))))))))))))))))))))))))))))))))))))))))))))))))))))))))))))))))))))
(check-sat)
